
Gurobi 9.5.2 (mac64[arm]) logging started Fri Apr 28 12:58:55 2023

Set parameter LogFile to value "Java/output/pure_mip_2_machine/scenario_seed_3_nJob_20_machineCount_2/mip_increment_1/log.txt"
Gurobi Optimizer version 9.5.2 build v9.5.2rc0 (mac64[arm])
Thread count: 8 physical cores, 8 logical processors, using up to 8 threads
Optimize a model with 1050 rows, 8800 columns and 97321 nonzeros
Model fingerprint: 0x2ff7dfe5
Variable types: 0 continuous, 8800 integer (8800 binary)
Coefficient statistics:
  Matrix range     [1e+00, 1e+02]
  Objective range  [5e+00, 8e+05]
  Bounds range     [1e+00, 1e+00]
  RHS range        [1e+00, 1e+00]
Presolve removed 155 rows and 2456 columns
Presolve time: 0.11s
Presolved: 895 rows, 6344 columns, 69952 nonzeros
Variable types: 0 continuous, 6344 integer (6342 binary)

Root relaxation: objective 2.283986e+05, 4590 iterations, 0.20 seconds (0.39 work units)

    Nodes    |    Current Node    |     Objective Bounds      |     Work
 Expl Unexpl |  Obj  Depth IntInf | Incumbent    BestBd   Gap | It/Node Time

     0     0 228398.574    0  172          - 228398.574      -     -    0s
H    0     0                    2880403.0000 228398.574  92.1%     -    0s
H    0     0                    1933290.0000 228398.574  88.2%     -    0s
H    0     0                    1933274.0000 228398.574  88.2%     -    0s
     0     0 234372.241    0  236 1933274.00 234372.241  87.9%     -    0s
H    0     0                    1927338.0000 234372.241  87.8%     -    0s
H    0     0                    1917574.0000 234372.241  87.8%     -    0s
     0     0 235720.256    0  235 1917574.00 235720.256  87.7%     -    0s
     0     0 235721.378    0  242 1917574.00 235721.378  87.7%     -    0s
H    0     0                    445931.00000 240510.739  46.1%     -    1s
H    0     0                    392793.00000 240510.739  38.8%     -    1s
     0     0 240510.739    0  280 392793.000 240510.739  38.8%     -    1s
H    0     0                    391825.00000 240510.739  38.6%     -    1s
H    0     0                    391614.00000 240510.739  38.6%     -    1s
     0     0 241609.526    0  265 391614.000 241609.526  38.3%     -    1s
     0     0 241693.611    0  261 391614.000 241693.611  38.3%     -    1s
     0     0 241699.588    0  264 391614.000 241699.588  38.3%     -    1s
     0     0 241703.674    0  267 391614.000 241703.674  38.3%     -    1s
     0     0 241703.674    0  268 391614.000 241703.674  38.3%     -    1s
H    0     0                    390581.00000 246027.006  37.0%     -    1s
H    0     0                    384121.00000 246027.006  36.0%     -    1s
H    0     0                    381308.00000 246027.006  35.5%     -    1s
H    0     0                    321196.00000 246027.006  23.4%     -    1s
H    0     0                    302256.00000 246027.006  18.6%     -    1s
     0     0 246027.006    0  279 302256.000 246027.006  18.6%     -    1s
H    0     0                    301503.00000 246027.006  18.4%     -    1s
H    0     0                    294605.00000 246027.006  16.5%     -    1s
     0     0 246324.743    0  280 294605.000 246324.743  16.4%     -    1s
     0     0 246858.961    0  284 294605.000 246858.961  16.2%     -    1s
     0     0 246884.491    0  292 294605.000 246884.491  16.2%     -    1s
     0     0 246884.491    0  295 294605.000 246884.491  16.2%     -    1s
     0     0 250602.477    0  287 294605.000 250602.477  14.9%     -    2s
H    0     0                    293761.00000 250602.477  14.7%     -    2s
     0     0 251021.847    0  313 293761.000 251021.847  14.5%     -    2s
     0     0 251043.370    0  306 293761.000 251043.370  14.5%     -    2s
     0     0 251045.794    0  302 293761.000 251045.794  14.5%     -    2s
     0     0 252595.517    0  304 293761.000 252595.517  14.0%     -    2s
     0     0 252956.461    0  325 293761.000 252956.461  13.9%     -    2s
     0     0 253073.919    0  327 293761.000 253073.919  13.9%     -    2s
H    0     0                    291966.00000 253090.555  13.3%     -    2s
     0     0 253090.555    0  335 291966.000 253090.555  13.3%     -    2s
     0     0 253090.819    0  335 291966.000 253090.819  13.3%     -    2s
     0     0 255229.432    0  329 291966.000 255229.432  12.6%     -    2s
     0     0 255562.620    0  335 291966.000 255562.620  12.5%     -    2s
     0     0 255590.890    0  334 291966.000 255590.890  12.5%     -    2s
     0     0 255606.070    0  338 291966.000 255606.070  12.5%     -    2s
     0     0 255607.174    0  325 291966.000 255607.174  12.5%     -    2s
     0     0 256519.661    0  336 291966.000 256519.661  12.1%     -    2s
H    0     0                    283140.00000 256519.661  9.40%     -    3s
     0     0 256754.628    0  338 283140.000 256754.628  9.32%     -    3s
     0     0 256822.147    0  360 283140.000 256822.147  9.29%     -    3s
     0     0 256824.365    0  366 283140.000 256824.365  9.29%     -    3s
     0     0 258128.095    0  319 283140.000 258128.095  8.83%     -    3s
     0     0 258128.095    0  173 283140.000 258128.095  8.83%     -    3s
     0     0 258128.095    0  284 283140.000 258128.095  8.83%     -    3s
     0     0 258128.095    0  325 283140.000 258128.095  8.83%     -    4s
     0     0 258128.095    0  304 283140.000 258128.095  8.83%     -    4s
     0     0 258128.095    0  328 283140.000 258128.095  8.83%     -    4s
     0     0 258185.409    0  343 283140.000 258185.409  8.81%     -    4s
     0     0 258341.333    0  331 283140.000 258341.333  8.76%     -    4s
     0     0 258343.162    0  338 283140.000 258343.162  8.76%     -    4s
     0     0 258682.860    0  308 283140.000 258682.860  8.64%     -    4s
     0     0 258725.592    0  333 283140.000 258725.592  8.62%     -    4s
     0     0 258730.732    0  335 283140.000 258730.732  8.62%     -    4s
H    0     0                    282749.00000 258730.732  8.49%     -    4s
H    0     0                    282168.00000 258730.732  8.31%     -    4s
     0     0 259624.312    0  352 282168.000 259624.312  7.99%     -    4s
H    0     0                    268623.00000 259624.312  3.35%     -    4s
     0     0 259957.448    0  316 268623.000 259957.448  3.23%     -    4s
     0     0 260056.459    0  340 268623.000 260056.459  3.19%     -    4s
     0     0 260087.087    0  351 268623.000 260087.087  3.18%     -    4s
     0     0 260092.636    0  351 268623.000 260092.636  3.18%     -    4s
     0     0 261538.115    0  329 268623.000 261538.115  2.64%     -    5s
     0     0 261718.968    0  311 268623.000 261718.968  2.57%     -    5s
     0     0 261728.748    0  320 268623.000 261728.748  2.57%     -    5s
     0     0 261743.680    0  329 268623.000 261743.680  2.56%     -    5s
     0     0 261743.680    0  314 268623.000 261743.680  2.56%     -    5s
     0     0 261802.370    0  178 268623.000 261802.370  2.54%     -    5s
H    0     0                    267299.00000 261802.370  2.06%     -    5s
     0     0 261802.370    0  282 267299.000 261802.370  2.06%     -    6s
     0     0 261802.370    0  265 267299.000 261802.370  2.06%     -    6s
     0     0 261802.370    0  284 267299.000 261802.370  2.06%     -    6s
     0     0 261802.370    0  290 267299.000 261802.370  2.06%     -    6s
     0     0 261802.370    0  304 267299.000 261802.370  2.06%     -    6s
     0     0 261823.736    0  311 267299.000 261823.736  2.05%     -    6s
     0     0 261825.124    0  316 267299.000 261825.124  2.05%     -    6s
     0     0 262099.077    0  327 267299.000 262099.077  1.95%     -    6s
H    0     0                    266817.00000 262099.077  1.77%     -    6s
     0     0 262151.419    0  330 266817.000 262151.419  1.75%     -    6s
     0     0 262151.419    0  331 266817.000 262151.419  1.75%     -    6s
     0     0 262227.865    0  326 266817.000 262227.865  1.72%     -    6s
     0     0 262227.865    0  311 266817.000 262227.865  1.72%     -    6s
     0     2 262259.791    0  311 266817.000 262259.791  1.71%     -    6s

Cutting planes:
  Cover: 5
  Clique: 57
  MIR: 72
  StrongCG: 23
  GUB cover: 76
  Zero half: 5
  RLT: 5

Explored 24 nodes (57349 simplex iterations) in 7.29 seconds (13.66 work units)
Thread count was 8 (of 8 available processors)

Solution count 10: 266817 267299 268623 ... 301503

Optimal solution found (tolerance 1.00e-04)
Best objective 2.668170000000e+05, best bound 2.668170000000e+05, gap 0.0000%
